10
40
1771
1671
1535
1244
1222
954
608
499
117
27
4	404
12	412
60	460
71	471
89	489
138	538
264	664
268	668
409	809
430	830
585	985
591	991
606	1006
619	1019
723	1123
818	1218
839	1239
945	1345
958	1358
972	1372
23	423
50	450
86	486
88	488
187	587
190	590
223	623
300	700
304	704
337	737
509	909
588	988
671	1071
711	1111
856	1256
923	1323
953	1353
963	1363
965	1365
979	1379
